10010
10010
10010
10010
10472
10472
10472
10868
10868
10945
10945
10945
10945
10945
10945
10945
10945
10945
10945
10945
10945
10945
10945
10945
10945
10945
10945
10945
10945
10945
10945
10945
10945
10945
10945
10945
10945
10945
10945
10945
10945
10945
10945
10945
10945
10945
10945
10945
10945
10945
10945
10945
10945
10945
10945
10945
10945
10945
10945
10945
10945
10945
10945
10945
10945
10945
10945
10945
10945
10945
10945
10945
10945
10945
10945
10945
10945
10945
10945
10945
10945
10945
10945
10945
10945
10945
10945
10945
10945
10945
10945
10945
10945
10945
10945
10945
10945
10945
10945
